c Result of efficient AIG-to-CNF conversion using package CNF
p cnf 691 2527
-2 3 617 -624 -626 0
-2 3 617 624 626 0
2 -617 0
2 624 -626 0
2 -3 0
2 -624 626 0
-3 4 499 -608 -611 0
-3 -4 -499 -608 -611 0
-3 4 499 608 611 0
-3 -4 -499 608 611 0
3 4 -499 0
3 -4 499 0
3 608 -611 0
3 -608 611 0
4 -656 5 0
-4 656 0
-4 -5 0
-5 6 482 483 495 0
5 -495 0
5 -6 0
5 -483 0
5 -482 0
-6 7 183 221 233 0
6 -233 0
6 -221 0
6 -7 0
6 -183 0
7 654 -8 151 0
7 -654 151 -162 0
-7 -151 0
-7 -654 162 0
-7 654 8 0
8 655 -9 0
8 -655 -127 0
-8 -655 127 0
-8 655 9 0
9 656 -10 0
9 -656 -98 0
-9 -656 98 0
-9 656 10 0
10 657 -11 0
10 -657 -72 0
-10 -657 72 0
-10 657 11 0
11 658 -12 0
11 -658 -48 0
-11 -658 48 0
-11 658 12 0
12 -686 13 -39 0
12 686 13 -24 0
-12 -13 0
-12 -686 39 0
-12 686 24 0
-13 659 14 0
13 -659 0
13 -14 0
-14 15 18 20 22 0
14 -22 0
14 -15 0
14 -20 0
14 -18 0
-15 682 683 684 16 0
15 -16 0
15 -684 0
15 -682 0
15 -683 0
-16 674 680 681 17 0
16 -17 0
16 -681 0
16 -674 0
16 -680 0
-17 678 679 685 0
17 -678 0
17 -685 0
17 -679 0
-18 675 676 677 19 0
18 -19 0
18 -677 0
18 -675 0
18 -676 0
-19 660 663 666 667 0
19 -667 0
19 -666 0
19 -660 0
19 -663 0
-20 661 662 664 21 0
20 -21 0
20 -664 0
20 -661 0
20 -662 0
-21 668 669 0
21 -668 0
21 -669 0
-22 671 672 673 23 0
22 -23 0
22 -673 0
22 -671 0
22 -672 0
-23 665 670 0
23 -665 0
23 -670 0
-24 687 25 0
-24 -687 32 0
24 -687 -32 0
24 687 -25 0
-25 688 29 0
-25 -688 26 0
25 -688 -26 0
25 688 -29 0
26 689 -27 0
26 -689 -28 0
-26 -689 28 0
-26 689 27 0
27 -668 -690 0
27 -667 690 0
-27 667 690 0
-27 668 -690 0
28 -670 -690 0
28 -669 690 0
-28 669 690 0
-28 670 -690 0
29 689 -30 0
29 -689 -31 0
-29 -689 31 0
-29 689 30 0
30 -664 -690 0
30 -663 690 0
-30 663 690 0
-30 664 -690 0
31 -666 -690 0
31 -665 690 0
-31 665 690 0
-31 666 -690 0
32 688 -33 0
32 -688 -36 0
-32 -688 36 0
-32 688 33 0
33 689 -34 0
33 -689 -35 0
-33 -689 35 0
-33 689 34 0
34 -672 -690 0
34 -671 690 0
-34 671 690 0
-34 672 -690 0
35 -674 -690 0
35 -673 690 0
-35 673 690 0
-35 674 -690 0
36 689 -37 0
36 -689 -38 0
-36 -689 38 0
-36 689 37 0
37 -676 -690 0
37 -675 690 0
-37 675 690 0
-37 676 -690 0
38 -678 -690 0
38 -677 690 0
-38 677 690 0
-38 678 -690 0
39 687 -40 0
39 -687 -47 0
-39 -687 47 0
-39 687 40 0
40 688 -41 0
40 -688 -44 0
-40 -688 44 0
-40 688 41 0
41 689 -42 0
41 -689 -43 0
-41 -689 43 0
-41 689 42 0
42 -680 -690 0
42 -679 690 0
-42 679 690 0
-42 680 -690 0
43 -682 -690 0
43 -681 690 0
-43 681 690 0
-43 682 -690 0
44 689 -45 0
44 -689 -46 0
-44 -689 46 0
-44 689 45 0
45 -684 -690 0
45 -683 690 0
-45 683 690 0
-45 684 -690 0
46 -686 -690 0
46 -685 690 0
-46 685 690 0
-46 686 -690 0
47 688 -689 0
47 -687 688 690 0
-47 -688 0
-47 689 -690 0
-47 687 689 0
48 -686 13 -64 0
48 686 13 -49 0
-48 -13 0
-48 -686 64 0
-48 686 49 0
49 687 -50 0
49 -687 -57 0
-49 -687 57 0
-49 687 50 0
50 688 -51 0
50 -688 -54 0
-50 -688 54 0
-50 688 51 0
51 689 -52 0
51 -689 -53 0
-51 -689 53 0
-51 689 52 0
52 -665 -690 0
52 -664 690 0
-52 664 690 0
-52 665 -690 0
53 -667 -690 0
53 -666 690 0
-53 666 690 0
-53 667 -690 0
54 689 -55 0
54 -689 -56 0
-54 -689 56 0
-54 689 55 0
55 -669 -690 0
55 -668 690 0
-55 668 690 0
-55 669 -690 0
56 -671 -690 0
56 -670 690 0
-56 670 690 0
-56 671 -690 0
57 688 -58 0
57 -688 -61 0
-57 -688 61 0
-57 688 58 0
58 689 -59 0
58 -689 -60 0
-58 -689 60 0
-58 689 59 0
59 -673 -690 0
59 -672 690 0
-59 672 690 0
-59 673 -690 0
60 -675 -690 0
60 -674 690 0
-60 674 690 0
-60 675 -690 0
61 689 -62 0
61 -689 -63 0
-61 -689 63 0
-61 689 62 0
62 -677 -690 0
62 -676 690 0
-62 676 690 0
-62 677 -690 0
63 -679 -690 0
63 -678 690 0
-63 678 690 0
-63 679 -690 0
64 687 -65 0
-64 -687 0
-64 65 0
65 688 -66 0
65 -688 -69 0
-65 -688 69 0
-65 688 66 0
66 689 -67 0
66 -689 -68 0
-66 -689 68 0
-66 689 67 0
67 -681 -690 0
67 -680 690 0
-67 680 690 0
-67 681 -690 0
68 -683 -690 0
68 -682 690 0
-68 682 690 0
-68 683 -690 0
69 689 -70 0
69 -689 -71 0
-69 -689 71 0
-69 689 70 0
70 -685 -690 0
70 -684 690 0
-70 684 690 0
-70 685 -690 0
71 -687 -690 0
71 -686 690 0
-71 686 690 0
-71 687 -690 0
72 658 -73 0
72 -658 -87 0
-72 -658 87 0
-72 658 73 0
73 -686 13 -81 0
73 686 13 -74 0
-73 -13 0
-73 -686 81 0
-73 686 74 0
-74 687 75 0
-74 -687 78 0
74 -687 -78 0
74 687 -75 0
-75 688 77 0
-75 -688 76 0
75 -688 -76 0
75 688 -77 0
76 689 -28 0
76 -689 -34 0
-76 -689 34 0
-76 689 28 0
77 -689 -27 0
77 689 -31 0
-77 689 31 0
-77 -689 27 0
78 688 -79 0
78 -688 -80 0
-78 -688 80 0
-78 688 79 0
79 689 -35 0
79 -689 -37 0
-79 -689 37 0
-79 689 35 0
80 689 -38 0
80 -689 -42 0
-80 -689 42 0
-80 689 38 0
81 687 -82 0
81 -687 -86 0
-81 -687 86 0
-81 687 82 0
82 688 -83 0
82 -688 -84 0
-82 -688 84 0
-82 688 83 0
83 689 -43 0
83 -689 -45 0
-83 -689 45 0
-83 689 43 0
84 689 -46 0
84 -689 -85 0
-84 -689 85 0
-84 689 46 0
85 -688 -690 0
85 -687 690 0
-85 687 690 0
-85 688 -690 0
86 688 689 -690 0
-86 690 0
-86 -689 0
-86 -688 0
87 -686 13 -95 0
87 686 13 -88 0
-87 -13 0
-87 -686 95 0
-87 686 88 0
88 687 -89 0
88 -687 -92 0
-88 -687 92 0
-88 687 89 0
89 688 -90 0
89 -688 -91 0
-89 -688 91 0
-89 688 90 0
90 689 -53 0
90 -689 -55 0
-90 -689 55 0
-90 689 53 0
91 689 -56 0
91 -689 -59 0
-91 -689 59 0
-91 689 56 0
92 688 -93 0
92 -688 -94 0
-92 -688 94 0
-92 688 93 0
93 689 -60 0
93 -689 -62 0
-93 -689 62 0
-93 689 60 0
94 689 -63 0
94 -689 -67 0
-94 -689 67 0
-94 689 63 0
95 687 -96 0
-95 -687 0
-95 96 0
96 -688 -689 0
96 688 -97 0
96 -688 -71 0
-96 688 97 0
-96 -688 689 71 0
97 689 -68 0
97 -689 -70 0
-97 -689 70 0
-97 689 68 0
98 657 -99 0
98 -657 -113 0
-98 -657 113 0
-98 657 99 0
99 658 -100 0
99 -658 -107 0
-99 -658 107 0
-99 658 100 0
100 -686 13 -104 0
100 686 13 -101 0
-100 -13 0
-100 -686 104 0
-100 686 101 0
101 687 -102 0
101 -687 -103 0
-101 -687 103 0
-101 687 102 0
102 688 -26 0
102 -688 -33 0
-102 -688 33 0
-102 688 26 0
103 688 -36 0
103 -688 -41 0
-103 -688 41 0
-103 688 36 0
104 687 -105 0
-104 -687 0
-104 105 0
105 688 -44 0
105 -688 -106 0
-105 -688 106 0
-105 688 44 0
-106 688 689 -690 0
-106 687 689 690 0
106 -689 0
106 -687 690 0
106 -688 -690 0
107 -686 13 -111 0
107 686 13 -108 0
-107 -13 0
-107 -686 111 0
-107 686 108 0
108 687 -109 0
108 -687 -110 0
-108 -687 110 0
-108 687 109 0
109 688 -54 0
109 -688 -58 0
-109 -688 58 0
-109 688 54 0
110 688 -61 0
110 -688 -66 0
-110 -688 66 0
-110 688 61 0
111 687 -112 0
-111 -687 0
-111 112 0
-112 -688 -689 0
-112 688 69 0
-112 -688 -690 0
112 688 -69 0
112 -688 689 690 0
113 658 -114 0
113 -658 -120 0
-113 -658 120 0
-113 658 114 0
114 -686 13 -118 0
114 686 13 -115 0
-114 -13 0
-114 -686 118 0
-114 686 115 0
115 687 -116 0
115 -687 -117 0
-115 -687 117 0
-115 687 116 0
116 688 -76 0
116 -688 -79 0
-116 -688 79 0
-116 688 76 0
117 688 -80 0
117 -688 -83 0
-117 -688 83 0
-117 688 80 0
118 687 -119 0
-118 -687 0
-118 119 0
119 688 -84 0
119 -688 689 -690 0
-119 -688 -689 0
-119 688 84 0
-119 -688 690 0
120 -686 13 -124 0
120 686 13 -121 0
-120 -13 0
-120 -686 124 0
-120 686 121 0
121 687 -122 0
121 -687 -123 0
-121 -687 123 0
-121 687 122 0
122 688 -91 0
122 -688 -93 0
-122 -688 93 0
-122 688 91 0
123 688 -94 0
123 -688 -97 0
-123 -688 97 0
-123 688 94 0
124 687 -125 0
-124 -687 0
-124 125 0
125 688 -126 0
-125 -688 0
-125 126 0
126 -688 -689 0
126 689 -71 0
126 -689 -690 0
-126 689 71 0
-126 688 -689 690 0
127 656 -128 0
127 -656 -140 0
-127 -656 140 0
-127 656 128 0
128 657 -129 0
128 -657 -135 0
-128 -657 135 0
-128 657 129 0
129 658 -130 0
129 -658 -133 0
-129 -658 133 0
-129 658 130 0
130 -686 13 -132 0
130 686 13 -131 0
-130 -13 0
-130 -686 132 0
-130 686 131 0
131 687 -32 0
131 -687 -40 0
-131 -687 40 0
-131 687 32 0
132 687 688 -689 0
-132 689 0
-132 -688 0
-132 -687 0
133 687 -57 134 0
133 -687 -65 134 0
-133 -134 0
-133 -687 65 0
-133 687 57 0
-134 686 13 0
134 -686 0
134 -13 0
135 658 -136 0
135 -658 -139 0
-135 -658 139 0
-135 658 136 0
136 -686 13 -138 0
136 686 13 -137 0
-136 -13 0
-136 -686 138 0
-136 686 137 0
137 687 -78 0
137 -687 -82 0
-137 -687 82 0
-137 687 78 0
138 687 688 689 -690 0
-138 690 0
-138 -689 0
-138 -687 0
-138 -688 0
139 687 -92 134 0
139 -687 -96 134 0
-139 -134 0
-139 -687 96 0
-139 687 92 0
140 657 -141 0
140 -657 -146 0
-140 -657 146 0
-140 657 141 0
141 658 -142 0
141 -658 -144 0
-141 -658 144 0
-141 658 142 0
142 134 -143 0
-142 -134 0
-142 143 0
143 687 -103 0
143 -687 -105 0
-143 -687 105 0
-143 687 103 0
144 134 -145 0
-144 -134 0
-144 145 0
145 687 -110 0
145 -687 -112 0
-145 -687 112 0
-145 687 110 0
146 658 -147 0
146 -658 -149 0
-146 -658 149 0
-146 658 147 0
147 134 -148 0
-147 -134 0
-147 148 0
148 687 -117 0
148 -687 -119 0
-148 -687 119 0
-148 687 117 0
149 134 -150 0
-149 -134 0
-149 150 0
150 687 -123 0
150 -687 -125 0
-150 -687 125 0
-150 687 123 0
-151 152 158 160 161 0
151 -161 0
151 -152 0
151 -160 0
151 -158 0
-152 651 652 153 155 0
152 -651 0
152 -155 0
152 -153 0
152 -652 0
-153 643 649 650 154 0
153 -154 0
153 -650 0
153 -643 0
153 -649 0
-154 647 648 653 0
154 -647 0
154 -653 0
154 -648 0
-155 639 640 156 157 0
155 -639 0
155 -157 0
155 -156 0
155 -640 0
-156 644 645 646 0
156 -644 0
156 -646 0
156 -645 0
-157 635 636 641 642 0
157 -642 0
157 -641 0
157 -635 0
157 -636 0
-158 633 637 638 159 0
158 -159 0
158 -638 0
158 -633 0
158 -637 0
-159 631 632 0
159 -631 0
159 -632 0
-160 627 634 0
160 -627 0
160 -634 0
-161 628 629 630 0
161 -628 0
161 -630 0
161 -629 0
162 655 -163 0
162 -655 -177 0
-162 -655 177 0
-162 655 163 0
163 656 -164 0
163 -656 -170 0
-163 -656 170 0
-163 656 164 0
164 657 -165 0
164 -657 -167 0
-164 -657 167 0
-164 657 165 0
165 658 -166 0
-165 -658 0
-165 166 0
166 -39 134 0
-166 39 0
-166 -134 0
167 658 -168 0
167 -658 -169 0
-167 -658 169 0
-167 658 168 0
168 -81 134 0
-168 81 0
-168 -134 0
169 -95 134 0
-169 95 0
-169 -134 0
170 657 -171 0
170 -657 -174 0
-170 -657 174 0
-170 657 171 0
171 658 -172 0
171 -658 -173 0
-171 -658 173 0
-171 658 172 0
172 -104 134 0
-172 104 0
-172 -134 0
173 -111 134 0
-173 111 0
-173 -134 0
174 658 -175 0
174 -658 -176 0
-174 -658 176 0
-174 658 175 0
175 -118 134 0
-175 118 0
-175 -134 0
176 -124 134 0
-176 124 0
-176 -134 0
177 656 -178 0
-177 -656 0
-177 178 0
178 657 -179 0
178 -657 -181 0
-178 -657 181 0
-178 657 179 0
179 658 -180 0
-179 -658 0
-179 180 0
180 687 688 -689 134 0
-180 -687 0
-180 -134 0
-180 689 0
-180 -688 0
181 658 -182 0
-181 -658 0
-181 182 0
182 134 -138 0
-182 -134 0
-182 138 0
183 654 151 -184 0
183 -654 151 -204 0
-183 -151 0
-183 -654 204 0
-183 654 184 0
184 655 -185 0
184 -655 -197 0
184 -655 -194 0
-184 655 185 0
-184 -655 194 197 0
185 -656 -190 0
185 656 -186 0
185 -656 -191 0
-185 656 186 0
-185 -656 190 191 0
-186 -657 187 189 0
-186 657 187 188 0
186 -187 0
186 -657 -189 0
186 657 -188 0
187 657 -72 0
187 -657 -99 0
-187 -657 99 0
-187 657 72 0
188 658 -48 0
188 -658 -73 0
-188 -658 73 0
-188 658 48 0
189 658 -87 0
189 -658 -100 0
-189 -658 100 0
-189 658 87 0
190 657 -113 0
190 -657 -129 0
-190 -657 129 0
-190 657 113 0
191 657 -192 0
191 -657 -193 0
-191 -657 193 0
-191 657 192 0
192 658 -107 0
192 -658 -114 0
-192 -658 114 0
-192 658 107 0
193 658 -120 0
193 -658 -130 0
-193 -658 130 0
-193 658 120 0
194 656 -195 0
194 -656 -196 0
-194 -656 196 0
-194 656 195 0
195 657 -135 0
195 -657 -141 0
-195 -657 141 0
-195 657 135 0
196 657 -146 0
196 -657 -165 0
-196 -657 165 0
-196 657 146 0
197 656 -198 0
197 -656 -201 0
-197 -656 201 0
-197 656 198 0
198 657 -199 0
198 -657 -200 0
-198 -657 200 0
-198 657 199 0
199 658 -133 0
199 -658 -136 0
-199 -658 136 0
-199 658 133 0
200 658 -139 0
200 -658 -142 0
-200 -658 142 0
-200 658 139 0
201 657 -202 0
201 -657 -203 0
-201 -657 203 0
-201 657 202 0
202 658 -144 0
202 -658 -147 0
-202 -658 147 0
-202 658 144 0
203 658 -149 0
203 -658 -166 0
-203 -658 166 0
-203 658 149 0
-204 -655 205 218 0
-204 655 205 211 0
204 -205 0
204 -655 -218 0
204 655 -211 0
205 655 -206 0
205 -655 -209 0
-205 -655 209 0
-205 655 206 0
206 656 -207 0
206 -656 -208 0
-206 -656 208 0
-206 656 207 0
207 657 -167 0
207 -657 -171 0
-207 -657 171 0
-207 657 167 0
208 657 -174 0
208 -657 -179 0
-208 -657 179 0
-208 657 174 0
209 656 -210 0
-209 -656 0
-209 210 0
210 657 -181 0
-210 -657 0
-210 181 0
211 656 -212 0
211 -656 -215 0
-211 -656 215 0
-211 656 212 0
212 657 -213 0
212 -657 -214 0
-212 -657 214 0
-212 657 213 0
213 -658 -168 0
-213 658 0
-213 168 0
214 658 -169 0
214 -658 -172 0
-214 -658 172 0
-214 658 169 0
215 657 -216 0
215 -657 -217 0
-215 -657 217 0
-215 657 216 0
216 658 -173 0
216 -658 -175 0
-216 -658 175 0
-216 658 173 0
217 658 -176 0
217 -658 -180 0
-217 -658 180 0
-217 658 176 0
218 656 -219 0
-218 -656 0
-218 219 0
219 657 -220 0
-219 -657 0
-219 220 0
220 -658 -182 0
-220 658 0
-220 182 0
221 654 151 -226 0
221 -654 151 -222 0
-221 -151 0
-221 -654 222 0
-221 654 226 0
222 655 -223 0
-222 -655 0
-222 223 0
223 656 -224 0
223 -656 -225 0
-223 -656 225 0
-223 656 224 0
224 657 -214 0
224 -657 -216 0
-224 -657 216 0
-224 657 214 0
225 657 -217 0
225 -657 -220 0
-225 -657 220 0
-225 657 217 0
226 655 -227 0
226 -655 -230 0
-226 -655 230 0
-226 655 227 0
227 656 -228 0
227 -656 -229 0
-227 -656 229 0
-227 656 228 0
228 657 -189 0
228 -657 -192 0
-228 -657 192 0
-228 657 189 0
229 657 -193 0
229 -657 -199 0
-229 -657 199 0
-229 657 193 0
230 656 -231 0
230 -656 -232 0
-230 -656 232 0
-230 656 231 0
231 657 -200 0
231 -657 -202 0
-231 -657 202 0
-231 657 200 0
232 657 -203 0
232 -657 -213 0
-232 -657 213 0
-232 657 203 0
-233 234 240 242 245 0
233 -234 0
233 -245 0
233 -242 0
233 -240 0
234 235 -236 0
234 235 -238 0
-234 -235 0
-234 236 238 0
-235 654 151 0
235 -654 0
235 -151 0
236 655 -237 0
-236 -655 0
-236 237 0
237 656 -215 0
237 -656 -219 0
-237 -656 219 0
-237 656 215 0
238 655 -239 0
-238 -655 0
-238 239 0
239 656 -208 0
239 -656 -210 0
-239 -656 210 0
-239 656 208 0
240 655 235 -241 0
240 -655 235 -237 0
-240 -235 0
-240 -655 237 0
-240 655 241 0
241 656 -201 0
241 -656 -212 0
-241 -656 212 0
-241 656 201 0
-242 -235 0
-242 162 243 0
242 -162 235 0
242 235 -243 0
243 655 -244 0
-243 -655 0
-243 244 0
244 656 -170 0
244 -656 -178 0
-244 -656 178 0
-244 656 170 0
-245 246 259 289 472 0
245 -472 0
245 -289 0
245 -246 0
245 -259 0
-246 -151 247 0
-246 247 253 256 0
246 -247 0
246 151 -256 0
246 151 -253 0
247 -654 151 -251 0
247 654 151 -248 0
-247 -151 0
-247 -654 251 0
-247 654 248 0
-248 -655 250 0
-248 655 249 0
248 655 -249 0
248 -655 -250 0
249 656 -229 0
249 -656 -231 0
-249 -656 231 0
-249 656 229 0
250 -656 -224 0
250 656 -232 0
-250 656 232 0
-250 -656 224 0
251 655 -252 0
-251 -655 0
-251 252 0
252 656 -225 0
-252 -656 0
-252 225 0
-253 654 254 0
-253 -654 255 0
253 -654 -255 0
253 654 -254 0
-254 -655 211 0
-254 655 197 0
254 655 -197 0
254 -655 -211 0
255 655 -218 0
-255 -655 0
-255 218 0
-256 654 257 0
-256 -654 258 0
256 -654 -258 0
256 654 -257 0
-257 -655 163 0
-257 655 127 0
257 655 -127 0
257 -655 -163 0
258 655 -177 0
-258 -655 0
-258 177 0
259 -654 151 -287 0
259 654 151 -260 0
-259 -151 0
-259 -654 287 0
-259 654 260 0
260 655 -261 0
260 -655 -286 0
-260 -655 286 0
-260 655 261 0
261 -656 -10 0
261 656 -262 0
-261 656 262 0
-261 -656 10 0
262 657 -263 0
262 -657 -277 0
262 657 -270 0
-262 -657 277 0
-262 657 263 270 0
263 -658 13 -264 0
-263 658 0
-263 -13 0
-263 264 0
-264 -686 145 0
-264 686 265 0
264 -686 -145 0
264 686 -265 0
-265 -687 109 0
-265 687 266 0
265 -687 -109 0
265 687 -266 0
-266 -688 51 0
-266 688 267 0
266 -688 -51 0
266 688 -267 0
-267 689 269 0
-267 -689 268 0
267 -689 -268 0
267 689 -269 0
268 -663 -690 0
268 -662 690 0
-268 662 690 0
-268 663 -690 0
269 -661 -690 0
269 -660 690 0
-269 660 690 0
-269 661 -690 0
270 658 659 14 -271 0
-270 -658 0
-270 271 0
-270 -14 0
-270 -659 0
-271 -686 143 0
-271 686 272 0
271 -686 -143 0
271 686 -272 0
-272 -687 102 0
-272 687 273 0
272 -687 -102 0
272 687 -273 0
-273 -688 29 0
-273 688 274 0
273 -688 -29 0
273 688 -274 0
-274 689 276 0
-274 -689 275 0
274 -689 -275 0
274 689 -276 0
275 -662 -690 0
275 -661 690 0
-275 661 690 0
-275 662 -690 0
276 -660 -690 0
276 -659 690 0
-276 659 690 0
-276 660 -690 0
277 -658 -282 0
277 658 13 -278 0
-277 -658 282 0
-277 658 -13 0
-277 658 278 0
-278 -686 148 0
-278 686 279 0
278 -686 -148 0
278 686 -279 0
-279 -687 116 0
-279 687 280 0
279 -687 -116 0
279 687 -280 0
-280 -688 77 0
-280 688 281 0
280 -688 -77 0
280 688 -281 0
-281 689 275 0
-281 -689 30 0
281 -689 -30 0
281 689 -275 0
282 686 13 -283 0
282 -686 13 -150 0
-282 -13 0
-282 686 283 0
-282 -686 150 0
-283 -687 122 0
-283 687 284 0
283 -687 -122 0
283 687 -284 0
-284 -688 90 0
-284 688 285 0
284 -688 -90 0
284 688 -285 0
-285 689 268 0
-285 -689 52 0
285 -689 -52 0
285 689 -268 0
286 656 -98 0
286 -656 -128 0
-286 -656 128 0
-286 656 98 0
287 -655 -244 0
287 655 -288 0
-287 655 288 0
-287 -655 244 0
288 656 -140 0
288 -656 -164 0
-288 -656 164 0
-288 656 140 0
289 -686 13 -444 0
289 686 13 -290 0
-289 -13 0
-289 -686 444 0
-289 686 290 0
290 687 -291 0
290 -687 -414 0
-290 -687 414 0
-290 687 291 0
291 688 -292 0
291 -688 -384 0
-291 -688 384 0
-291 688 292 0
292 689 -293 0
292 -689 -353 0
-292 -689 353 0
-292 689 293 0
293 690 -294 0
293 -690 -324 0
-293 -690 324 0
-293 690 294 0
294 -654 151 -310 0
294 654 151 -295 0
-294 -151 0
-294 -654 310 0
-294 654 295 0
-295 655 296 0
-295 -655 303 0
295 -655 -303 0
295 655 -296 0
-296 656 297 0
-296 -656 300 0
296 -656 -300 0
296 656 -297 0
-297 657 299 0
-297 -657 298 0
297 -657 -298 0
297 657 -299 0
298 658 -662 0
298 -658 -663 0
-298 -658 663 0
-298 658 662 0
299 658 -660 0
299 -658 -661 0
-299 -658 661 0
-299 658 660 0
300 657 -301 0
300 -657 -302 0
-300 -657 302 0
-300 657 301 0
301 658 -664 0
301 -658 -665 0
-301 -658 665 0
-301 658 664 0
302 658 -666 0
302 -658 -667 0
-302 -658 667 0
-302 658 666 0
303 656 -304 0
303 -656 -307 0
-303 -656 307 0
-303 656 304 0
304 657 -305 0
304 -657 -306 0
-304 -657 306 0
-304 657 305 0
305 658 -668 0
305 -658 -669 0
-305 -658 669 0
-305 658 668 0
306 658 -670 0
306 -658 -671 0
-306 -658 671 0
-306 658 670 0
307 657 -308 0
307 -657 -309 0
-307 -657 309 0
-307 657 308 0
308 658 -672 0
308 -658 -673 0
-308 -658 673 0
-308 658 672 0
309 658 -674 0
309 -658 -675 0
-309 -658 675 0
-309 658 674 0
310 655 -311 0
310 -655 -318 0
-310 -655 318 0
-310 655 311 0
311 656 -312 0
311 -656 -315 0
-311 -656 315 0
-311 656 312 0
312 657 -313 0
312 -657 -314 0
-312 -657 314 0
-312 657 313 0
313 658 -676 0
313 -658 -677 0
-313 -658 677 0
-313 658 676 0
314 658 -678 0
314 -658 -679 0
-314 -658 679 0
-314 658 678 0
315 657 -316 0
315 -657 -317 0
-315 -657 317 0
-315 657 316 0
316 658 -680 0
316 -658 -681 0
-316 -658 681 0
-316 658 680 0
317 658 -682 0
317 -658 -683 0
-317 -658 683 0
-317 658 682 0
318 656 -319 0
318 -656 -322 0
-318 -656 322 0
-318 656 319 0
319 657 -320 0
319 -657 -321 0
-319 -657 321 0
-319 657 320 0
320 658 -684 0
320 -658 -685 0
-320 -658 685 0
-320 658 684 0
321 658 -686 0
321 -658 -687 0
-321 -658 687 0
-321 658 686 0
322 657 -323 0
322 -657 658 -690 0
-322 -657 -658 0
-322 657 323 0
-322 -657 690 0
323 658 -688 0
323 -658 -689 0
-323 -658 689 0
-323 658 688 0
324 -654 151 -340 0
324 654 151 -325 0
-324 -151 0
-324 -654 340 0
-324 654 325 0
-325 655 326 0
-325 -655 333 0
325 -655 -333 0
325 655 -326 0
-326 656 327 0
-326 -656 330 0
326 -656 -330 0
326 656 -327 0
-327 657 329 0
-327 -657 328 0
327 -657 -328 0
327 657 -329 0
328 658 -663 0
328 -658 -664 0
-328 -658 664 0
-328 658 663 0
329 658 -661 0
329 -658 -662 0
-329 -658 662 0
-329 658 661 0
330 657 -331 0
330 -657 -332 0
-330 -657 332 0
-330 657 331 0
331 658 -665 0
331 -658 -666 0
-331 -658 666 0
-331 658 665 0
332 658 -667 0
332 -658 -668 0
-332 -658 668 0
-332 658 667 0
333 656 -334 0
333 -656 -337 0
-333 -656 337 0
-333 656 334 0
334 657 -335 0
334 -657 -336 0
-334 -657 336 0
-334 657 335 0
335 658 -669 0
335 -658 -670 0
-335 -658 670 0
-335 658 669 0
336 658 -671 0
336 -658 -672 0
-336 -658 672 0
-336 658 671 0
337 657 -338 0
337 -657 -339 0
-337 -657 339 0
-337 657 338 0
338 658 -673 0
338 -658 -674 0
-338 -658 674 0
-338 658 673 0
339 658 -675 0
339 -658 -676 0
-339 -658 676 0
-339 658 675 0
340 655 -341 0
340 -655 -348 0
-340 -655 348 0
-340 655 341 0
341 656 -342 0
341 -656 -345 0
-341 -656 345 0
-341 656 342 0
342 657 -343 0
342 -657 -344 0
-342 -657 344 0
-342 657 343 0
343 658 -677 0
343 -658 -678 0
-343 -658 678 0
-343 658 677 0
344 658 -679 0
344 -658 -680 0
-344 -658 680 0
-344 658 679 0
345 657 -346 0
345 -657 -347 0
-345 -657 347 0
-345 657 346 0
346 658 -681 0
346 -658 -682 0
-346 -658 682 0
-346 658 681 0
347 658 -683 0
347 -658 -684 0
-347 -658 684 0
-347 658 683 0
348 656 -349 0
348 -656 -352 0
-348 -656 352 0
-348 656 349 0
349 657 -350 0
349 -657 -351 0
-349 -657 351 0
-349 657 350 0
350 658 -685 0
350 -658 -686 0
-350 -658 686 0
-350 658 685 0
351 658 -687 0
351 -658 -688 0
-351 -658 688 0
-351 658 687 0
352 657 -658 -690 0
352 657 658 -689 0
-352 -657 0
-352 -658 690 0
-352 658 689 0
353 690 -354 0
353 -690 -369 0
-353 -690 369 0
-353 690 354 0
354 -654 151 -362 0
354 654 151 -355 0
-354 -151 0
-354 -654 362 0
-354 654 355 0
-355 655 356 0
-355 -655 359 0
355 -655 -359 0
355 655 -356 0
-356 656 357 0
-356 -656 358 0
356 -656 -358 0
356 656 -357 0
-357 -657 301 0
-357 657 298 0
357 657 -298 0
357 -657 -301 0
358 657 -302 0
358 -657 -305 0
-358 -657 305 0
-358 657 302 0
359 656 -360 0
359 -656 -361 0
-359 -656 361 0
-359 656 360 0
360 657 -306 0
360 -657 -308 0
-360 -657 308 0
-360 657 306 0
361 657 -309 0
361 -657 -313 0
-361 -657 313 0
-361 657 309 0
362 655 -363 0
362 -655 -366 0
-362 -655 366 0
-362 655 363 0
363 656 -364 0
363 -656 -365 0
-363 -656 365 0
-363 656 364 0
364 657 -314 0
364 -657 -316 0
-364 -657 316 0
-364 657 314 0
365 657 -317 0
365 -657 -320 0
-365 -657 320 0
-365 657 317 0
366 656 -367 0
366 -656 -368 0
-366 -656 368 0
-366 656 367 0
367 657 -321 0
367 -657 -323 0
-367 -657 323 0
-367 657 321 0
368 657 658 -690 0
-368 690 0
-368 -658 0
-368 -657 0
369 -654 151 -377 0
369 654 151 -370 0
-369 -151 0
-369 -654 377 0
-369 654 370 0
-370 655 371 0
-370 -655 374 0
370 -655 -374 0
370 655 -371 0
-371 656 373 0
-371 -656 372 0
371 -656 -372 0
371 656 -373 0
372 657 -332 0
372 -657 -335 0
-372 -657 335 0
-372 657 332 0
373 657 -328 0
373 -657 -331 0
-373 -657 331 0
-373 657 328 0
374 656 -375 0
374 -656 -376 0
-374 -656 376 0
-374 656 375 0
375 657 -336 0
375 -657 -338 0
-375 -657 338 0
-375 657 336 0
376 657 -339 0
376 -657 -343 0
-376 -657 343 0
-376 657 339 0
377 655 -378 0
377 -655 -381 0
-377 -655 381 0
-377 655 378 0
378 656 -379 0
378 -656 -380 0
-378 -656 380 0
-378 656 379 0
379 657 -344 0
379 -657 -346 0
-379 -657 346 0
-379 657 344 0
380 657 -347 0
380 -657 -350 0
-380 -657 350 0
-380 657 347 0
381 656 -382 0
-381 -656 0
-381 382 0
382 657 -351 0
382 -657 -383 0
-382 -657 383 0
-382 657 351 0
383 658 -689 0
383 -658 -690 0
-383 -658 690 0
-383 658 689 0
384 689 -385 0
384 -689 -400 0
-384 -689 400 0
-384 689 385 0
385 690 -386 0
385 -690 -393 0
-385 -690 393 0
-385 690 386 0
386 -654 151 -390 0
386 654 151 -387 0
-386 -151 0
-386 -654 390 0
-386 654 387 0
-387 655 388 0
-387 -655 389 0
387 -655 -389 0
387 655 -388 0
-388 -656 304 0
-388 656 300 0
388 656 -300 0
388 -656 -304 0
389 656 -307 0
389 -656 -312 0
-389 -656 312 0
-389 656 307 0
390 655 -391 0
390 -655 -392 0
-390 -655 392 0
-390 655 391 0
391 656 -315 0
391 -656 -319 0
-391 -656 319 0
-391 656 315 0
392 656 -322 0
-392 -656 0
-392 322 0
393 -654 151 -397 0
393 654 151 -394 0
-393 -151 0
-393 -654 397 0
-393 654 394 0
-394 655 395 0
-394 -655 396 0
394 -655 -396 0
394 655 -395 0
-395 -656 334 0
-395 656 330 0
395 656 -330 0
395 -656 -334 0
396 656 -337 0
396 -656 -342 0
-396 -656 342 0
-396 656 337 0
397 655 -398 0
397 -655 -399 0
-397 -655 399 0
-397 655 398 0
398 656 -345 0
398 -656 -349 0
-398 -656 349 0
-398 656 345 0
399 656 -352 0
-399 -656 0
-399 352 0
400 690 -401 0
400 -690 -408 0
-400 -690 408 0
-400 690 401 0
401 -654 151 -405 0
401 654 151 -402 0
-401 -151 0
-401 -654 405 0
-401 654 402 0
-402 655 403 0
-402 -655 404 0
402 -655 -404 0
402 655 -403 0
-403 -656 360 0
-403 656 358 0
403 656 -358 0
403 -656 -360 0
404 656 -361 0
404 -656 -364 0
-404 -656 364 0
-404 656 361 0
405 655 -406 0
405 -655 -407 0
-405 -655 407 0
-405 655 406 0
406 656 -365 0
406 -656 -367 0
-406 -656 367 0
-406 656 365 0
407 656 657 658 -690 0
-407 690 0
-407 -658 0
-407 -656 0
-407 -657 0
408 -654 151 -412 0
408 654 151 -409 0
-408 -151 0
-408 -654 412 0
-408 654 409 0
409 655 -410 0
409 -655 -411 0
-409 -655 411 0
-409 655 410 0
410 656 -372 0
410 -656 -375 0
-410 -656 375 0
-410 656 372 0
411 656 -376 0
411 -656 -379 0
-411 -656 379 0
-411 656 376 0
412 655 -413 0
-412 -655 0
-412 413 0
413 656 -380 0
413 -656 -382 0
-413 -656 382 0
-413 656 380 0
414 688 -415 0
414 -688 -430 0
-414 -688 430 0
-414 688 415 0
415 689 -416 0
415 -689 -423 0
-415 -689 423 0
-415 689 416 0
416 690 -417 0
416 -690 -420 0
-416 -690 420 0
-416 690 417 0
417 -654 151 -419 0
417 654 151 -418 0
-417 -151 0
-417 -654 419 0
-417 654 418 0
418 655 -303 0
418 -655 -311 0
-418 -655 311 0
-418 655 303 0
419 655 -318 0
-419 -655 0
-419 318 0
420 -654 151 -422 0
420 654 151 -421 0
-420 -151 0
-420 -654 422 0
-420 654 421 0
421 655 -333 0
421 -655 -341 0
-421 -655 341 0
-421 655 333 0
422 655 -348 0
-422 -655 0
-422 348 0
423 690 -424 0
423 -690 -427 0
-423 -690 427 0
-423 690 424 0
424 -654 151 -426 0
424 654 151 -425 0
-424 -151 0
-424 -654 426 0
-424 654 425 0
425 655 -359 0
425 -655 -363 0
-425 -655 363 0
-425 655 359 0
426 655 -366 0
-426 -655 0
-426 366 0
427 -654 151 -429 0
427 654 151 -428 0
-427 -151 0
-427 -654 429 0
-427 654 428 0
428 655 -374 0
428 -655 -378 0
-428 -655 378 0
-428 655 374 0
429 655 -381 0
-429 -655 0
-429 381 0
430 689 -431 0
430 -689 -438 0
-430 -689 438 0
-430 689 431 0
431 690 -432 0
431 -690 -435 0
-431 -690 435 0
-431 690 432 0
432 -654 151 -434 0
432 654 151 -433 0
-432 -151 0
-432 -654 434 0
-432 654 433 0
433 655 -389 0
433 -655 -391 0
-433 -655 391 0
-433 655 389 0
434 655 -392 0
-434 -655 0
-434 392 0
435 -654 151 -437 0
435 654 151 -436 0
-435 -151 0
-435 -654 437 0
-435 654 436 0
436 655 -396 0
436 -655 -398 0
-436 -655 398 0
-436 655 396 0
437 655 -399 0
-437 -655 0
-437 399 0
438 690 -439 0
438 -690 -442 0
-438 -690 442 0
-438 690 439 0
439 -654 151 -441 0
439 654 151 -440 0
-439 -151 0
-439 -654 441 0
-439 654 440 0
440 655 -404 0
440 -655 -406 0
-440 -655 406 0
-440 655 404 0
441 655 -407 0
-441 -655 0
-441 407 0
442 235 -443 0
-442 -235 0
-442 443 0
443 655 -411 0
443 -655 -413 0
-443 -655 413 0
-443 655 411 0
444 687 -445 0
444 -687 -460 0
-444 -687 460 0
-444 687 445 0
445 688 -446 0
445 -688 -453 0
-445 -688 453 0
-445 688 446 0
446 689 -447 0
446 -689 -450 0
-446 -689 450 0
-446 689 447 0
447 690 -448 0
447 -690 -449 0
-447 -690 449 0
-447 690 448 0
448 235 -310 0
-448 -235 0
-448 310 0
449 235 -340 0
-449 -235 0
-449 340 0
450 690 -451 0
450 -690 -452 0
-450 -690 452 0
-450 690 451 0
451 235 -362 0
-451 -235 0
-451 362 0
452 235 -377 0
-452 -235 0
-452 377 0
453 689 -454 0
453 -689 -457 0
-453 -689 457 0
-453 689 454 0
454 690 -455 0
454 -690 -456 0
-454 -690 456 0
-454 690 455 0
455 235 -390 0
-455 -235 0
-455 390 0
456 235 -397 0
-456 -235 0
-456 397 0
457 690 -458 0
457 -690 -459 0
-457 -690 459 0
-457 690 458 0
458 235 -405 0
-458 -235 0
-458 405 0
459 235 -412 0
-459 -235 0
-459 412 0
460 688 -461 0
460 -688 -468 0
-460 -688 468 0
-460 688 461 0
461 689 -462 0
461 -689 -465 0
-461 -689 465 0
-461 689 462 0
462 690 -463 0
462 -690 -464 0
-462 -690 464 0
-462 690 463 0
463 235 -419 0
-463 -235 0
-463 419 0
464 235 -422 0
-464 -235 0
-464 422 0
465 690 -466 0
465 -690 -467 0
-465 -690 467 0
-465 690 466 0
466 235 -426 0
-466 -235 0
-466 426 0
467 235 -429 0
-467 -235 0
-467 429 0
468 689 -469 0
-468 -689 0
-468 469 0
469 690 -470 0
469 -690 -471 0
-469 -690 471 0
-469 690 470 0
470 235 -434 0
-470 -235 0
-470 434 0
471 235 -437 0
-471 -235 0
-471 437 0
472 -654 151 -478 0
472 654 151 -473 0
-472 -151 0
-472 -654 478 0
-472 654 473 0
473 -655 -249 0
473 655 -474 0
473 -655 -477 0
-473 655 474 0
-473 -655 249 477 0
474 -656 -187 0
474 656 -475 0
474 -656 -228 0
-474 656 475 0
-474 -656 187 228 0
475 -657 -11 0
475 657 -476 0
475 -657 -188 0
-475 657 476 0
-475 -657 11 188 0
-476 -658 12 277 0
-476 658 282 277 0
476 -277 0
476 658 -282 0
476 -658 -12 0
477 656 -190 0
477 -656 -195 0
-477 -656 195 0
-477 656 190 0
478 -250 479 0
478 -239 -480 0
478 -239 -250 0
478 479 -480 0
-478 250 480 0
-478 239 -479 0
479 -655 252 0
-479 655 0
-479 -252 0
-480 655 481 0
480 -655 0
480 -481 0
481 656 -196 0
481 -656 -207 0
-481 -656 207 0
-481 656 196 0
482 655 235 -480 0
482 235 -239 -480 0
-482 -235 0
-482 480 0
-482 -655 239 0
-483 -235 484 488 0
-483 484 487 488 0
483 -488 0
483 -484 0
483 235 -487 0
484 -654 151 -486 0
484 654 151 -485 0
-484 -151 0
-484 -654 486 0
-484 654 485 0
-485 -655 206 0
-485 655 194 0
485 655 -194 0
485 -655 -206 0
486 655 -209 0
-486 -655 0
-486 209 0
-487 -655 223 287 0
-487 655 230 287 0
487 -287 0
487 655 -230 0
487 -655 -223 0
-488 -151 0
-488 489 493 0
-488 -492 493 0
488 151 -493 0
488 151 -489 492 0
-489 654 -655 491 0
-489 654 655 490 0
489 -654 0
489 -655 -491 0
489 655 -490 0
-490 656 191 286 0
-490 -656 198 286 0
490 -286 0
490 656 -191 0
490 -656 -198 0
-491 241 288 0
491 -241 0
491 -288 0
492 -654 236 243 0
-492 654 0
-492 -243 0
-492 -236 0
-493 -654 238 0
-493 654 494 0
493 -654 -238 0
493 654 -494 0
-494 -655 481 0
-494 655 477 0
494 655 -477 0
494 -655 -481 0
-495 -235 497 498 0
-495 496 497 498 0
495 -498 0
495 -497 0
495 235 -496 0
-496 204 222 0
496 -204 0
496 -222 0
497 235 -251 0
-497 -235 0
-497 251 0
498 -655 235 479 0
498 235 -250 479 0
-498 -235 0
-498 -479 0
-498 655 250 0
499 -656 500 581 599 0
-499 -599 0
-499 656 0
-499 -581 0
-499 -500 0
-500 497 501 525 547 0
500 -497 0
500 -547 0
500 -525 0
500 -501 0
-501 240 502 0
501 -240 0
501 -502 0
-502 -686 0
-502 -13 0
-502 503 518 0
502 686 13 -503 0
502 686 13 -518 0
503 687 -504 0
503 -687 -511 0
-503 -687 511 0
-503 687 504 0
504 688 -505 0
504 -688 -508 0
-504 -688 508 0
-504 688 505 0
505 689 -506 0
505 -689 -507 0
-505 -689 507 0
-505 689 506 0
506 690 -442 0
506 -690 -448 0
-506 -690 448 0
-506 690 442 0
507 690 -449 0
507 -690 -451 0
-507 -690 451 0
-507 690 449 0
508 689 -509 0
508 -689 -510 0
-508 -689 510 0
-508 689 509 0
509 690 -452 0
509 -690 -455 0
-509 -690 455 0
-509 690 452 0
510 690 -456 0
510 -690 -458 0
-510 -690 458 0
-510 690 456 0
511 688 -512 0
511 -688 -515 0
-511 -688 515 0
-511 688 512 0
512 689 -513 0
512 -689 -514 0
-512 -689 514 0
-512 689 513 0
513 690 -459 0
513 -690 -463 0
-513 -690 463 0
-513 690 459 0
514 690 -464 0
514 -690 -466 0
-514 -690 466 0
-514 690 464 0
515 689 -516 0
515 -689 -517 0
-515 -689 517 0
-515 689 516 0
516 690 -467 0
516 -690 -470 0
-516 -690 470 0
-516 690 467 0
517 -690 235 -441 0
517 690 235 -437 0
-517 -235 0
-517 -690 441 0
-517 690 437 0
-518 687 522 0
-518 -687 519 0
518 -687 -519 0
518 687 -522 0
519 688 -520 0
519 -688 -521 0
-519 -688 521 0
-519 688 520 0
520 689 -457 0
520 -689 -462 0
-520 -689 462 0
-520 689 457 0
521 689 -465 0
521 -689 -469 0
-521 -689 469 0
-521 689 465 0
522 688 -523 0
522 -688 -524 0
-522 -688 524 0
-522 688 523 0
523 689 -438 0
523 -689 -447 0
-523 -689 447 0
-523 689 438 0
524 689 -450 0
524 -689 -454 0
-524 -689 454 0
-524 689 450 0
-525 289 526 0
525 -289 0
525 -526 0
526 686 13 -527 0
526 -686 13 -503 0
-526 -13 0
-526 -686 503 0
-526 686 527 0
527 687 -528 0
527 -687 -540 0
-527 -687 540 0
-527 687 528 0
528 688 -529 0
528 -688 -537 0
-528 -688 537 0
-528 688 529 0
529 689 -530 0
529 -689 -536 0
-529 -689 536 0
-529 689 530 0
530 -690 -294 0
530 690 151 -531 0
-530 -690 294 0
-530 690 531 0
-530 690 -151 0
-531 -654 443 0
-531 654 532 0
531 -654 -443 0
531 654 -532 0
-532 -655 410 0
-532 655 533 0
532 -655 -410 0
532 655 -533 0
-533 656 534 0
-533 -656 373 0
533 -656 -373 0
533 656 -534 0
534 -657 -329 0
534 657 -535 0
-534 657 535 0
-534 -657 329 0
535 658 -659 0
535 -658 -660 0
-535 -658 660 0
-535 658 659 0
536 690 -324 0
536 -690 -354 0
-536 -690 354 0
-536 690 324 0
537 689 -538 0
537 -689 -539 0
-537 -689 539 0
-537 689 538 0
538 690 -369 0
538 -690 -386 0
-538 -690 386 0
-538 690 369 0
539 690 -393 0
539 -690 -401 0
-539 -690 401 0
-539 690 393 0
540 688 -541 0
540 -688 -544 0
-540 -688 544 0
-540 688 541 0
541 689 -542 0
541 -689 -543 0
-541 -689 543 0
-541 689 542 0
542 690 -408 0
542 -690 -417 0
-542 -690 417 0
-542 690 408 0
543 690 -420 0
543 -690 -424 0
-543 -690 424 0
-543 690 420 0
544 689 -545 0
544 -689 -546 0
-544 -689 546 0
-544 689 545 0
545 690 -427 0
545 -690 -432 0
-545 -690 432 0
-545 690 427 0
546 690 -435 0
546 -690 -439 0
-546 -690 439 0
-546 690 435 0
-547 548 563 572 0
547 -548 0
547 -572 0
547 -563 0
548 -686 13 -556 0
548 686 13 -549 0
-548 -13 0
-548 -686 556 0
-548 686 549 0
549 687 -550 0
549 -687 -553 0
-549 -687 553 0
-549 687 550 0
550 688 -551 0
550 -688 -552 0
-550 -688 552 0
-550 688 551 0
551 689 -536 0
551 -689 -538 0
-551 -689 538 0
-551 689 536 0
552 689 -539 0
552 -689 -542 0
-552 -689 542 0
-552 689 539 0
553 688 -554 0
553 -688 -555 0
-553 -688 555 0
-553 688 554 0
554 689 -543 0
554 -689 -545 0
-554 -689 545 0
-554 689 543 0
555 -689 -506 0
555 689 -546 0
-555 689 546 0
-555 -689 506 0
556 687 -557 0
556 -687 -560 0
-556 -687 560 0
-556 687 557 0
557 688 -558 0
557 -688 -559 0
-557 -688 559 0
-557 688 558 0
558 689 -507 0
558 -689 -509 0
-558 -689 509 0
-558 689 507 0
559 689 -510 0
559 -689 -513 0
-559 -689 513 0
-559 689 510 0
560 688 -561 0
560 -688 -562 0
-560 -688 562 0
-560 688 561 0
561 689 -514 0
561 -689 -516 0
-561 -689 516 0
-561 689 514 0
562 689 -517 0
-562 -689 0
-562 517 0
563 686 13 -564 0
563 -686 13 -570 0
-563 -13 0
-563 -686 570 0
-563 686 564 0
564 -557 -565 0
564 -565 -568 0
564 687 -565 0
-564 565 0
-564 -687 557 568 0
-565 687 414 553 566 0
565 -566 0
565 -553 0
565 -687 0
565 -414 0
566 -688 -523 0
566 688 -567 0
-566 688 567 0
-566 -688 523 0
567 689 -423 0
567 -689 -431 0
-567 -689 431 0
-567 689 423 0
-568 445 569 0
568 -445 0
568 -569 0
569 -688 -520 0
569 688 -524 0
-569 688 524 0
-569 -688 520 0
-570 -687 0
-570 460 560 571 0
570 687 -571 0
570 687 -560 0
570 687 -460 0
571 688 -521 0
-571 -688 0
-571 521 0
572 686 13 -573 0
572 -686 13 -578 0
-572 -13 0
-572 -686 578 0
-572 686 573 0
573 -687 -576 0
573 687 -574 0
573 -687 -577 0
-573 687 574 0
-573 -687 576 577 0
-574 688 430 575 0
-574 -688 446 575 0
574 -575 0
574 688 -430 0
574 -688 -446 0
575 -688 -505 0
575 688 -544 0
-575 688 544 0
-575 -688 505 0
576 688 -508 0
576 -688 -512 0
-576 -688 512 0
-576 688 508 0
577 688 -453 0
577 -688 -461 0
-577 -688 461 0
-577 688 453 0
-578 -687 0
-578 579 580 0
578 687 -579 0
578 687 -580 0
579 688 -468 0
-579 -688 0
-579 468 0
580 688 -515 0
-580 -688 0
-580 515 0
-581 484 582 592 0
581 -592 0
581 -582 0
581 -484 0
582 686 13 -587 0
582 -686 13 -583 0
-582 -13 0
-582 -686 583 0
-582 686 587 0
-583 585 586 0
-583 580 -584 586 0
583 -586 0
583 -580 -585 0
583 584 -585 0
584 -687 571 0
-584 687 0
-584 -571 0
-585 687 569 576 0
585 -687 0
585 -576 0
585 -569 0
586 687 -577 0
586 -687 -579 0
-586 -687 579 0
-586 687 577 0
587 -687 -566 0
587 687 -588 0
587 -687 -574 0
-587 687 588 0
-587 -687 566 574 0
-588 688 384 589 0
-588 -688 415 589 0
588 -589 0
588 688 -384 0
588 -688 -415 0
589 -688 -541 0
589 688 -590 0
589 -688 -591 0
-589 688 590 0
-589 -688 541 591 0
-590 689 353 537 0
-590 -689 385 537 0
590 -537 0
590 689 -353 0
590 -689 -385 0
591 689 -400 0
591 -689 -416 0
-591 -689 416 0
-591 689 400 0
-592 234 593 0
592 -234 0
592 -593 0
-593 -134 0
-593 -687 594 0
-593 519 594 0
593 134 -594 0
593 687 134 -519 0
-594 687 576 595 0
-594 -687 580 595 0
594 -595 0
594 687 -576 0
594 -687 -580 0
-595 586 596 598 0
595 -586 0
595 -598 0
595 -596 0
596 687 -597 0
596 -687 688 -562 0
-596 -687 -688 0
-596 687 597 0
-596 -687 562 0
597 688 -559 0
597 -688 -561 0
-597 -688 561 0
-597 688 559 0
598 687 -511 0
-598 -687 0
-598 511 0
-599 600 601 0
599 -600 0
599 -601 0
-600 482 498 0
600 -482 0
600 -498 0
-601 -13 221 604 0
-601 221 602 604 0
601 -604 0
601 -221 0
601 13 -602 0
-602 -686 598 0
-602 686 603 0
602 -686 -598 0
602 686 -603 0
-603 687 540 0
-603 -687 504 0
603 -687 -504 0
603 687 -540 0
604 686 13 -605 0
604 -686 13 -596 0
-604 -13 0
-604 -686 596 0
-604 686 605 0
605 687 -606 0
605 -687 -607 0
-605 -687 607 0
-605 687 606 0
606 688 -552 0
606 -688 -554 0
-606 -688 554 0
-606 688 552 0
607 688 -555 0
607 -688 -558 0
-607 -688 558 0
-607 688 555 0
608 5 -609 0
-608 -5 0
-608 609 0
-609 654 610 0
609 -654 0
609 -610 0
610 235 -255 0
-610 -235 0
-610 255 0
611 -609 612 0
-611 609 0
-611 -612 0
-612 497 563 593 613 0
612 -497 0
612 -613 0
612 -593 0
612 -563 0
-613 234 600 614 616 0
613 -234 0
613 -616 0
613 -614 0
613 -600 0
-614 601 615 0
614 -601 0
614 -615 0
-615 525 548 0
615 -525 0
615 -548 0
-616 484 501 572 582 0
616 -501 0
616 -582 0
616 -484 0
616 -572 0
-617 618 620 -621 -622 0
-617 -618 -620 -621 -622 0
-617 618 620 621 622 0
-617 -618 -620 621 622 0
617 618 -620 0
617 -618 620 0
617 621 -622 0
617 -621 622 0
618 5 -619 0
-618 -5 0
-618 619 0
619 -658 610 0
-619 658 0
-619 -610 0
620 612 -619 0
-620 -612 0
-620 619 0
621 -655 5 0
-621 655 0
-621 -5 0
622 497 599 616 -623 0
-622 -497 0
-622 623 0
-622 -616 0
-622 -599 0
623 -655 563 592 615 0
-623 -615 0
-623 655 0
-623 -592 0
-623 -563 0
624 5 -625 0
-624 -5 0
-624 625 0
625 -657 258 0
625 -657 -235 0
-625 657 0
-625 235 -258 0
626 612 -625 0
-626 -612 0
-626 625 0
-691 0
2 0

